sat
(:max-memory         18.62
 :memory             18.42
 :nlsat-arith-var    5
 :nlsat-atoms        21
 :nlsat-bool-var     3
 :nlsat-clauses      9
 :nlsat-conflicts    1
 :nlsat-decisions    1
 :nlsat-propagations 12
 :nlsat-stages       7
 :num-allocs         78865
 :rlimit-count       7029
 :time               0.01
 :total-time         0.02)
